NAME : U-P-n76-k4.598194.tour
COMMENT : Cost = 0_598194
COMMENT : Found by LKH [Keld Helsgaun] Wed Sep 13 14:37:24 2017
TYPE : TOUR
DIMENSION : 79
TOUR_SECTION
1
18
41
13
73
59
11
39
66
67
12
60
15
54
36
8
27
77
68
47
9
20
55
14
58
16
38
21
71
61
72
70
37
48
6
30
46
28
53
35
78
5
31
49
22
62
23
65
43
42
44
2
74
63
29
75
3
69
76
79
7
34
64
24
57
50
25
19
51
26
56
32
40
10
33
45
4
17
52
-1
EOF
